0000000000000000
0000000000000000
1111111111110000
0000000000110000
0000000000110000
0000000000110000
1111111111111111
0000000000000000
0000000000000000
0000000000000000
0000000000000000
0000000000000000
0000000000000000
0000000000000000
0000000000000000
0000000000000000